0001 11
0002 11
0003 11
0004 15
0005 6
0006 1
0007 20
0008 13
0009 5
0010 12
0011 20
0012 1
0013 16
0014 1
0015 9
0016 1
0017 13
0018 6
0019 13
0020 20
0021 2
0022 1
0023 15
0024 20
0025 1
0026 11
0027 15
0028 7
0029 9
0030 17
0031 4
0032 11
0033 7
0034 2
0035 20
0036 1
0037 7
0038 14
0039 14
0040 13
0041 11
0042 2
0043 13
0044 9
0045 1
0046 20
0047 20
0048 10
0049 7
0050 1
0051 13
0052 14
0053 1
0054 15
0055 1
0056 4
0057 11
0058 8
0059 20
0060 20
0061 1
0062 5
0063 20
0064 1
0065 13
0066 14
0067 1
0068 17
0069 7
0070 1
0071 11
0072 7
0073 11
0074 20
0075 7
0076 20
0077 3
0078 3
0079 9
0080 9
0081 20
0082 14
0083 7
0084 11
0085 16
0086 11
0087 15
0088 16
0089 12
0090 5
0091 14
0092 9
0093 10
0094 11
0095 1
0096 16
0097 8
0098 12
0099 20
0100 13
0101 2
0102 15
0103 9
0104 6
0105 1
0106 11
0107 5
0108 17
0109 11
0110 1
0111 5
0112 5
0113 6
0114 14
0115 9
0116 1
0117 14
0118 12
0119 8
0120 16
0121 4
0122 1
0123 10
0124 7
0125 19
0126 14
0127 17
0128 4
0129 8
0130 14
0131 17
0132 19
0133 4
0134 1
0135 2
0136 11
0137 20
0138 16
0139 6
0140 8
0141 13
0142 8
0143 14
0144 4
0145 9
0146 12
0147 14
0148 17
0149 10
0150 9
0151 6
0152 13
0153 18
0154 17
0155 1
0156 20
0157 10
0158 14
0159 1
0160 20
0161 18
0162 12
0163 6
0164 15
0165 15
0166 6
0167 13
0168 17
0169 6
0170 6
0171 15
0172 7
0173 11
0174 10
0175 20
0176 10
0177 14
0178 1
0179 7
0180 12
0181 15
0182 9
0183 8
0184 13
0185 15
0186 10
0187 19
0188 5
0189 10
0190 11
0191 20
0192 7
0193 8
0194 7
0195 19
0196 11
0197 5
0198 13
0199 16
0200 20
0201 1
0202 12
0203 18
0204 1
0205 1
0206 5
0207 6
0208 11
0209 12
0210 19
0211 19
0212 19
0213 1
0214 10
0215 16
0216 1
0217 11
0218 7
0219 16
0220 13
0221 17
0222 15
0223 9
0224 15
0225 7
0226 16
0227 5
0228 14
0229 11
0230 1
0231 14
0232 20
0233 1
0234 20
0235 7
0236 1
0237 20
0238 13
0239 17
0240 11
0241 1
0242 4
0243 8
0244 12
0245 8
0246 7
0247 8
0248 8
0249 15
0250 3
0251 3
0252 18
0253 3
0254 3
0255 18
0256 3
0257 18
0258 2
0259 9
0260 16
0261 15
0262 13
0263 11
0264 15
0265 7
0266 20
0267 16
0268 5
0269 2
0270 16
0271 1
0272 7
0273 6
0274 14
0275 11
0276 4
0277 12
0278 20
0279 7
0280 14
0281 1
0282 20
0283 20
0284 13
0285 1
0286 16
0287 16
0288 11
0289 10
0290 10
0291 7
0292 4
0293 4
0294 15
0295 6
0296 4
0297 11
0298 8
0299 14
0300 4
0301 19
0302 20
0303 15
0304 1
0305 2
0306 20
0307 20
0308 16
0309 10
0310 15
0311 1
0312 7
0313 16
0314 6
0315 20
0316 12
0317 16
0318 6
0319 10
0320 5
0321 14
0322 16
0323 15
0324 12
0325 11
0326 11
0327 8
0328 9
0329 1
0330 1
0331 6
0332 14
0333 10
0334 18
0335 1
0336 7
0337 15
0338 2
0339 13
0340 16
0341 5
0342 1
0343 20
0344 20
0345 2
0346 1
0347 8
0348 8
0349 12
0350 14
0351 2
0352 17
0353 5
0354 5
0355 1
0356 20
0357 19
0358 15
0359 4
0360 8
0361 2
0362 1
0363 9
0364 3
0365 4
0366 4
0367 20
0368 20
0369 1
0370 3
0371 12
0372 20
0373 20
0374 14
0375 20
0376 14
0377 15
0378 6
0379 14
0380 20
0381 1
0382 9
0383 17
0384 20
0385 8
0386 8
0387 2
0388 3
0389 10
0390 1
0391 1
0392 1
0393 1
0394 1
0395 20
0396 1
0397 1
0398 1
0399 1
0400 10
0401 14
0402 20
0403 1
0404 13
0405 10
0406 16
0407 20
0408 13
0409 4
0410 19
0411 10
0412 1
0413 16
0414 17
0415 11
0416 16
0417 20
0418 10
0419 20
0420 13
0421 7
0422 16
0423 20
0424 1
0425 1
0426 7
0427 13
0428 1
0429 19
0430 13
0431 9
0432 6
0433 11
0434 15
0435 2
0436 9
0437 1
0438 16
0439 15
0440 8
0441 11
0442 6
0443 1
0444 4
0445 12
0446 15
0447 5
0448 8
0449 9
0450 10
0451 13
0452 20
0453 2
0454 6
0455 1
0456 12
0457 12
0458 14
0459 10
0460 6
0461 17
